000 000 000 000 000 000 000 000 -99 -99 -99 -99 -99 000 000 -99 -99 -99 -99 -99 000 000 -99 000 000 000 -99 -99 -99 -99 000
000 -99 -99 000 000 000 000 000 -99 -99 -99 -99 -99 000 000 000 -99 -99 -99 -99 -99 000 000 000 000 000 000 -99 -99 -99 000
000 -99 -99 000 000 000 000 000 000 -99 -99 -99 -99 -99 000 000 -99 -99 -99 -99 -99 -99 000 000 000 000 000 000 000 -99 -99
000 -99 000 000 000 000 000 000 000 000 -99 000 000 -99 -99 -99 -99 -99 -99 -99 -99 -99 000 000 000 000 000 000 000 -99 -99
000 000 000 000 000 000 000 000 000 000 -99 000 000 000 -99 -99 -99 -99 -99 -99 000 000 000 000 000 000 000 000 000 -99 -99
000 000 000 000 000 000 000 000 000 000 -99 000 000 000 -99 000 000 -99 -99 -99 000 000 000 000 000 -99 -99 -99 -99 -99 -99
000 000 000 000 000 000 000 000 000 000 000 000 000 000 -99 000 000 000 000 000 000 000 000 000 000 000 -99 -99 -99 -99 -99
000 000 000 000 000 000 000 000 000 000 000 000 -99 000 000 000 000 000 000 000 000 000 000 000 000 000 -99 -99 -99 000 000
000 000 000 000 000 000 000 000 000 000 000 000 000 000 000 000 000 001 002 002 000 000 000 000 000 001 000 000 -99 000 000
000 000 000 000 000 000 000 000 000 000 000 000 000 000 000 000 001 004 013 013 002 000 000 000 000 002 000 000 001 000 000
000 000 000 002 000 001 001 001 001 001 001 000 000 002 001 001 003 009 037 042 009 004 000 001 003 003 002 001 001 001 000
000 000 000 003 006 004 004 003 001 001 007 001 002 005 003 004 009 010 028 037 023 006 001 004 009 010 017 004 001 002 001
000 000 000 004 026 019 006 011 002 002 010 005 004 016 010 018 019 010 017 007 009 037 005 003 028 030 022 010 002 006 001
002 000 000 002 018 042 019 010 006 002 010 013 006 030 054 058 021 005 013 002 003 017 002 003 046 069 016 006 008 013 001
006 002 002 004 017 042 028 015 002 004 023 018 009 042 080 047 012 003 004 001 000 002 002 002 023 058 013 002 008 010 000
005 003 007 011 024 027 015 005 002 006 039 034 008 072 044 021 006 002 004 002 000 001 002 004 013 018 002 000 003 007 001
003 005 009 008 033 024 011 002 002 018 053 030 013 016 023 009 005 002 002 003 000 000 004 011 017 010 002 000 000 004 002
006 006 007 006 008 017 014 004 002 009 046 048 026 013 009 004 005 004 000 005 001 000 001 021 031 012 001 000 000 002 001
008 008 006 009 008 012 006 005 002 007 039 030 029 015 006 004 006 003 000 004 001 000 001 029 046 016 004 005 002 005 022
008 009 008 014 018 012 009 005 002 008 028 048 056 020 010 007 007 004 001 003 001 001 001 006 020 013 010 006 006 014 066
010 013 011 012 015 009 007 006 003 008 024 029 039 023 018 013 013 019 007 003 002 003 002 002 003 009 014 023 030 100 165
012 012 012 012 011 004 007 008 006 011 021 021 029 023 026 023 021 014 007 004 002 003 003 003 003 007 013 027 046 114 207
013 011 016 010 008 003 008 011 012 024 024 036 036 019 020 024 020 011 004 005 004 004 005 005 004 005 013 045 116 195 288
014 006 016 011 006 013 008 015 012 013 016 021 017 009 008 015 020 009 002 004 004 003 006 007 006 005 017 071 162 191 199
008 006 022 012 008 012 010 012 010 007 011 010 006 007 005 010 015 005 002 002 002 002 006 006 005 005 021 061 096 082 123
002 006 017 029 009 012 014 006 009 003 002 003 003 005 006 009 010 004 002 001 002 003 006 006 -99 005 019 048 069 054 044
001 004 014 013 012 012 007 004 003 001 001 002 004 005 005 004 004 002 001 002 004 004 007 -99 004 -99 -99 021 014 010 007
001 003 007 007 007 010 005 002 001 001 002 002 002 003 001 001 001 001 002 005 004 005 007 006 004 -99 -99 006 004 006 005
000 001 002 003 003 004 005 004 000 001 001 002 002 001 000 001 001 001 002 005 004 005 007 007 004 004 004 006 004 004 006
001 001 002 002 003 002 003 003 002 000 001 002 004 001 001 001 001 002 002 006 005 006 011 012 006 005 003 006 007 007 009
000 001 001 001 002 002 001 001 001 001 002 003 007 004 001 002 003 003 003 005 003 004 008 013 005 005 003 007 008 010 014
001 001 001 002 002 001 001 001 001 001 002 002 004 003 001 003 003 003 005 007 009 007 007 012 006 005 004 008 005 007 011
000 002 001 002 001 001 001 001 001 001 001 001 002 002 002 004 002 002 004 005 002 004 004 007 006 006 006 013 014 009 013
000 000 001 002 001 002 000 000 001 000 000 001 002 003 004 004 002 001 002 003 002 002 002 005 005 003 006 010 006 008 014
000 000 000 000 000 001 000 000 001 000 000 000 001 003 003 004 001 000 000 001 001 001 000 002 002 002 005 006 003 002 003
000 000 000 000 000 000 000 000 000 000 000 000 000 001 002 002 001 000 001 001 000 000 000 000 000 001 002 002 001 001 001
000 000 000 000 000 000 000 000 000 000 000 000 000 000 001 001 000 000 001 001 001 000 000 000 000 000 000 001 000 001 000
000 000 000 000 000 000 000 000 000 000 000 000 000 000 000 000 000 000 001 002 001 000 000 000 000 000 000 000 000 000 000
000 000 000 000 000 000 000 000 000 000 000 000 000 000 000 000 000 000 000 001 000 000 000 000 000 000 000 000 000 000 000
000 000 000 000 -99 -99 -99 -99 000 000 000 000 000 000 000 000 000 000 000 000 000 000 000 000 000 000 000 000 000 000 000
000 000 000 000 -99 000 000 000 000 000 000 000 000 000 000 000 000 000 000 000 000 000 000 000 000 000 000 000 000 000 000
000 000 000 000 000 000 000 000 000 000 000 000 000 000 000 000 000 000 000 000 000 000 000 000 000 000 000 000 000 000 000
000 000 000 000 000 000 000 000 000 000 000 000 000 000 000 000 000 000 000 000 001 001 001 000 000 000 000 000 001 000 000
000 000 000 000 000 000 000 000 000 000 000 000 000 000 000 000 000 000 000 001 001 001 001 000 000 000 000 000 001 000 000
000 000 000 000 000 000 000 000 -99 000 000 000 000 000 000 000 000 000 001 001 001 001 000 000 000 000 000 000 001 -99 -99
-99 000 000 000 000 000 000 -99 -99 000 000 000 000 000 000 000 000 000 000 000 001 001 000 000 000 000 000 001 001 -99 000
-99 -99 000 000 000 000 -99 -99 -99 000 000 000 000 000 000 000 000 000 000 000 000 000 000 000 000 000 000 -99 -99 -99 000
-99 -99 -99 000 -99 -99 -99 -99 000 000 000 000 000 000 000 000 000 000 -99 000 000 000 000 000 000 000 -99 -99 -99 -99 -99
-99 -99 -99 -99 -99 -99 -99 -99 000 000 -99 000 000 000 000 000 000 -99 -99 000 000 000 000 000 000 000 -99 -99 -99 -99 -99
-99 -99 -99 -99 -99 -99 -99 -99 000 000 -99 000 000 000 -99 -99 -99 -99 -99 000 000 000 000 000 -99 -99 -99 -99 -99 -99 -99
-99 -99 -99 -99 -99 -99 -99 000 000 000 -99 -99 -99 -99 -99 -99 -99 -99 000 000 000 -99 -99 -99 -99 -99 -99 -99 -99 -99 -99
-99 -99 -99 -99 -99 -99 -99 -99 000 -99 -99 -99 -99 -99 -99 -99 -99 -99 000 000 -99 -99 -99 -99 -99 -99 -99 -99 -99 -99 -99
-99 -99 -99 -99 -99 -99 -99 -99 -99 -99 -99 -99 -99 -99 -99 -99 000 000 000 000 000 -99 -99 -99 -99 -99 -99 -99 -99 -99 -99
-99 -99 -99 -99 -99 -99 -99 -99 -99 -99 -99 -99 -99 -99 -99 -99 000 000 000 000 -99 -99 -99 -99 -99 -99 -99 -99 -99 -99 -99
-99 -99 -99 -99 -99 -99 -99 -99 -99 -99 -99 -99 -99 -99 -99 -99 -99 -99 000 -99 -99 -99 -99 -99 -99 -99 -99 -99 -99 -99 -99
